96
94
72
50
85
79
82
6
91
80
7
3
54
40
74
43
90
87
34
46
1
63
83
18
88
27
55
89
28
76
53
26
98
22
73
66
84
36
77
65
70
48
95
33
59
71
51
37
86
49
32
30
12
92
5
11
81
21
75
4
100
31
56
60
61
68
62
45
10
39
15
38
24
20
58
41
44
99
9
35
57
17
25
67
13
52
64
8
29
93
47
14
97
16
78
23
42
2
19
69